Route #1: 75 68 4 30 48 29 45 27 52
Route #2: 34 13 54 19 59 14 35 8 46
Route #3: 57 15 5 37 20 70 60 71 69 36 47 21
Route #4: 61 64 42 43 41 56 23 24 49 16
Route #5: 2 74 28 62 22 1 73 63 33 6
Route #6: 51 3 44 32 50 18 55 25 31 9
Route #7: 10 38 65 66 11 53 7
Route #8: 17 40 39 72 58 12 26 67
Cost 790